Selected objective sense:  MINIMIZE
Selected objective  name:  OBJ
Selected RHS        name:  RHS1
Selected bound      name:  BND1
CPXPARAM_Preprocessing_Presolve                  0
CPXPARAM_LPMethod                                4
CPXPARAM_Threads                                 1
CPXPARAM_SolutionType                            2
CPXPARAM_TimeLimit                               3600
Tried aggregator 0 times.
DUAL formed by presolve
Reduced presolve eliminated 2441 rows and 2537 columns.
Reduced LP has 16039 rows, 5847 columns, and 693226 nonzeros.
Presolve time = 0.18 sec. (200.04 ticks)
Parallel mode: none, using 1 thread for barrier

***NOTE: Found 48 dense columns.

Number of nonzeros in lower triangle of A*A' = 16668
Using Approximate Minimum Degree ordering
Total time for automatic ordering = 0.01 sec. (2.43 ticks)
Summary statistics for Cholesky factor:
  Rows in Factor            = 16087
  Integer space required    = 274790
  Total non-zeros in factor = 754539
  Total FP ops to factor    = 36189151
 Itn      Primal Obj        Dual Obj  Prim Inf Upper Inf  Dual Inf Inf Ratio
   0  -2.1729599e+07   4.8573732e+08  1.46e+05  0.00e+00  1.61e+07  1.00e+00
   1  -1.1424989e+08   3.2808245e+08  1.21e+05  4.01e-13  1.36e+07  1.51e-03
   2  -1.4104154e+08   2.2511972e+08  4.02e+04  5.31e-12  1.07e+07  2.23e-04
   3  -1.0069644e+08   8.8856801e+07  1.41e+04  3.33e-12  5.92e+06  9.28e-05
   4  -4.8506901e+07   6.8016484e+06  3.57e+03  9.84e-12  1.90e+06  1.01e-03
   5  -4.6766683e+06   2.0863217e+05  3.13e+02  9.58e-12  2.25e+05  9.16e-03
   6  -3.6560563e+06   7.5400310e+05  2.70e+02  5.76e-12  1.82e+05  3.41e-03
   7  -2.3868027e+06   7.0439027e+05  1.91e+02  3.96e-12  8.50e+04  4.30e-03
   8  -9.1807242e+05   5.7761332e+04  6.57e+01  1.66e-12  2.22e+04  2.10e-02
   9  -1.2611791e+05   2.8650841e+04  1.04e+01  1.76e-12  3.62e+03  1.59e-01
  10  -1.5636082e+04   2.5611741e+04  2.77e+00  2.49e-12  1.05e+03  4.60e-01
  11   1.8563984e+04   2.5044373e+04  4.39e-01  1.35e-12  6.39e+01  7.91e+00
  12   2.2558321e+04   2.4892278e+04  1.55e-01  1.48e-12  3.20e+01  1.08e+01
  13   2.3787725e+04   2.4790720e+04  5.76e-02  1.89e-12  2.34e+01  1.38e+01
  14   2.4119268e+04   2.4654280e+04  2.89e-02  3.51e-12  1.40e+01  2.39e+01
  15   2.4365051e+04   2.4592343e+04  1.02e-02  1.08e-12  8.38e+00  4.07e+01
  16   2.4427906e+04   2.4557909e+04  5.58e-03  1.89e-12  5.13e+00  7.30e+01
  17   2.4463540e+04   2.4542790e+04  2.85e-03  1.62e-12  3.77e+00  1.04e+02
  18   2.4474574e+04   2.4536448e+04  2.03e-03  3.51e-12  3.19e+00  1.27e+02
  19   2.4482138e+04   2.4531233e+04  1.48e-03  2.83e-12  2.70e+00  1.55e+02
  20   2.4491398e+04   2.4527699e+04  7.76e-04  1.35e-12  2.38e+00  1.80e+02
  21   2.4497504e+04   2.4526692e+04  2.60e-04  1.48e-12  2.29e+00  1.89e+02
  22   2.4498362e+04   2.4523937e+04  1.82e-04  3.24e-12  2.05e+00  2.16e+02
  23   2.4499467e+04   2.4518083e+04  1.24e-04  5.26e-12  1.50e+00  3.11e+02
  24   2.4500585e+04   2.4516866e+04  7.00e-05  4.59e-12  1.39e+00  3.43e+02
  25   2.4501543e+04   2.4514701e+04  2.49e-05  1.62e-12  1.19e+00  4.17e+02
  26   2.4502113e+04   2.4513273e+04  8.01e-06  4.18e-12  1.05e+00  4.86e+02
  27   2.4502294e+04   2.4509500e+04  4.74e-06  1.08e-12  6.80e-01  8.51e+02
  28   2.4502662e+04   2.4508419e+04  2.76e-06  2.29e-12  5.64e-01  1.07e+03
  29   2.4503146e+04   2.4506067e+04  8.87e-07  1.75e-12  3.01e-01  2.35e+03
  30   2.4503392e+04   2.4505080e+04  3.91e-07  1.62e-12  1.81e-01  4.38e+03
  31   2.4503607e+04   2.4504270e+04  1.29e-07  1.48e-12  7.38e-02  1.18e+04
  32   2.4503697e+04   2.4503961e+04  4.42e-08  5.80e-12  3.09e-02  3.00e+04
  33   2.4503737e+04   2.4503818e+04  2.26e-08  1.89e-12  1.02e-02  9.34e+04
  34   2.4503738e+04   2.4503760e+04  5.82e-06  3.38e-12  2.03e-03  7.68e+05
  35   2.4503743e+04   2.4503753e+04  1.16e-04  5.23e-12  7.37e-04  2.14e+06
  36   2.4503746e+04   2.4503751e+04  2.40e-04  5.76e-12  3.22e-04  4.68e+06
  37   2.4503747e+04   2.4503750e+04  4.32e-04  2.14e-12  1.06e-04  1.12e+07
  38   2.4503748e+04   2.4503749e+04  4.88e-04  2.27e-12  2.48e-05  3.39e+07
  39   2.4503748e+04   2.4503749e+04  5.92e-04  1.20e-12  3.83e-06  1.28e+08
Barrier time = 2.07 sec. (2412.07 ticks)

Total time on 1 threads = 2.07 sec. (2412.07 ticks)
Solve time: 2.074138966
Barrier iterations: 39
